SAT
52 94 78 -66 46 91 82 -37 30 95 17 36 -27 -14 41 -49 73 -84 22 -50 -19 86 43 -29 55 34 -32 68 35 -5 9 -21 -79 -96 38 -83 16 24 -60 -13 -76 -77 44 -53 54 8 47 -81 -67 -98 -20 -18 69 25 31 40 -2 -15 26 48 -59 -65 89 62 74 -12 90 39 -11 100 -45 -85 -4 -51 -97 1 7 70 -58 -3 -63 -23 -61 -92 28 -57 -88 -93 -6 75 71 -80 64 99 -72 -56 33 87 -10 42 0
